[[1,2,29,38,161,174,192,198,338,342,344,346,532,550,566,572,579,764,786,795],[65,73,82,113,137,153,156,310,317,324,466,473,480,730,735,753,964,991,994,999],[47,75,89,166,272,273,276,296,399,409,424,457,459,691,704,709,711,941,958,959],[39,68,70,215,225,229,250,253,376,394,398,586,633,670,671,684,851,857,920,926],[24,55,64,200,201,214,348,363,366,371,375,594,607,632,756,802,828,832,835,848]]